15 250
1 39 90
2 77 26
3 90 43
4 40 28
5 44 93
6 74 13
7 8 62
8 14 17
9 97 37
10 13 23
11 49 35
12 57 16
13 3 19
14 55 28
15 5 15
15
6 2
13 5
3 15
11 1
14 15
7 10
12 6
10 4
1 4
2 7
6 15
10 3
14 7
10 5
2 13
